
Value of objective function: 0

Actual values of the variables:
pL1_div_from_law                0
comp_pos0                       0
comp_neg0                       0
comp_pos1                       0
comp_neg1                       0
comp_pos2                       0
comp_neg2                       0
comp_pos3                       0
comp_neg3                       0
comp_pos4                       0
comp_neg4                       0
comp_pos5                       0
comp_neg5                       0
comp_pos6                       0
comp_neg6                       0
comp_pos7                       0
comp_neg7                       0
comp_pos8                       0
comp_neg8                       0
comp_pos9                       0
comp_neg9                       0
comp_pos10                      0
comp_neg10                      0
comp_pos11                      0
comp_neg11                      0
comp_pos12                      0
comp_neg12                      0
comp_pos13                      0
comp_neg13                      0
z_c0_t0               1.32138e+10
p0_c0_t0              3.16721e+09
p1_c0_t0              2.03625e+09
p2_c0_t0              7.62166e+09
p3_c0_t0              3.88715e+08
diff0                           0
normdiff0                       0
z_c0_t1               1.47752e+10
p0_c0_t1              2.77966e+09
p1_c0_t1              2.28348e+09
p2_c0_t1              9.17611e+09
p3_c0_t1              5.35944e+08
diff1                           0
normdiff1                       0
z_c1_t0               1.65566e+10
p0_c1_t0               3.2343e+09
p1_c1_t0              2.64257e+09
p2_c1_t0              1.05094e+10
p3_c1_t0              1.70339e+08
diff2                           0
normdiff2                       0
z_c1_t1               1.94959e+10
p0_c1_t1              3.29213e+09
p1_c1_t1              3.75939e+09
p2_c1_t1              1.21246e+10
p3_c1_t1              3.19724e+08
diff3                           0
normdiff3                       0
z_c2_t0               7.24754e+09
p0_c2_t0              1.09258e+09
p1_c2_t0              1.06766e+09
p2_c2_t0              4.93672e+09
p3_c2_t0              1.50576e+08
diff4                           0
normdiff4                       0
z_c2_t1               7.97123e+09
p0_c2_t1              8.95819e+08
p1_c2_t1              1.24796e+09
p2_c2_t1              5.61072e+09
p3_c2_t1               2.1673e+08
diff5                           0
normdiff5                       0
z_c3_t0               1.22612e+10
p0_c3_t0              1.97674e+09
p1_c3_t0               1.8253e+09
p2_c3_t0              8.07763e+09
p3_c3_t0              3.81519e+08
diff6                           0
normdiff6                       0
z_c3_t1               1.42798e+10
p0_c3_t1              2.25825e+09
p1_c3_t1              1.86932e+09
p2_c3_t1              9.21687e+09
p3_c3_t1              9.35337e+08
diff7                           0
normdiff7                       0
z_c4_t0               7.97197e+09
p0_c4_t0              8.72485e+08
p1_c4_t0              2.04252e+09
p2_c4_t0              4.93608e+09
p3_c4_t0              1.20886e+08
diff8                           0
normdiff8                       0
z_c4_t1                8.9819e+09
p0_c4_t1              9.11208e+08
p1_c4_t1              1.88043e+09
p2_c4_t1              6.10167e+09
p3_c4_t1              8.85896e+07
diff9                           0
normdiff9                       0
z_c5_t0               1.00642e+10
p0_c5_t0              1.53859e+09
p1_c5_t0              1.70636e+09
p2_c5_t0              6.76888e+09
p3_c5_t0              5.03208e+07
diff10                          0
normdiff10                      0
z_c5_t1                1.2016e+10
p0_c5_t1              1.13526e+09
p1_c5_t1              1.70709e+09
p2_c5_t1              9.02785e+09
p3_c5_t1              1.45804e+08
diff11                          0
normdiff11                      0
z_c6_t0               1.81204e+10
p0_c6_t0              2.80935e+09
p1_c6_t0              2.17727e+09
p2_c6_t0              1.29695e+10
p3_c6_t0              1.64267e+08
diff12                          0
normdiff12                      0
z_c6_t1               2.06345e+10
p0_c6_t1              3.05102e+09
p1_c6_t1              1.99564e+09
p2_c6_t1               1.5464e+10
p3_c6_t1              1.23845e+08
diff13                          0
normdiff13                      0
